Route #1: 45 
Route #2: 42 41 14 58 54 21 2 
Route #3: 53 38 8 46 56 3 32 
Route #4: 47 15 55 13 48 
Route #5: 59 25 26 33 19 
Route #6: 18 50 1 27 36 20 7 
Route #7: 22 62 9 40 16 44 
Route #8: 10 57 17 12 6 35 34 61 
Route #9: 28 29 5 52 51 39 
Route #10: 60 31 4 49 30 43 24 11 23 37 
cost 2014.11
